p edge 30 150
e 1 6
e 1 9
e 1 19
e 1 20
e 1 22
e 2 23
e 2 25
e 2 26
e 2 28
e 2 28
e 3 10
e 3 10
e 3 10
e 3 18
e 3 24
e 4 3
e 4 3
e 4 15
e 4 21
e 4 28
e 5 2
e 5 6
e 5 8
e 5 21
e 5 30
e 6 4
e 6 4
e 6 7
e 6 7
e 6 21
e 7 12
e 7 13
e 7 23
e 7 23
e 7 28
e 8 4
e 8 18
e 8 18
e 8 18
e 8 19
e 9 6
e 9 7
e 9 11
e 9 25
e 9 27
e 10 1
e 10 15
e 10 20
e 10 26
e 10 26
e 11 1
e 11 7
e 11 14
e 11 27
e 11 30
e 12 4
e 12 6
e 12 9
e 12 13
e 12 17
e 13 2
e 13 7
e 13 8
e 13 9
e 13 17
e 14 6
e 14 11
e 14 18
e 14 21
e 14 27
e 15 1
e 15 3
e 15 8
e 15 10
e 15 18
e 16 15
e 16 20
e 16 24
e 16 25
e 16 26
e 17 4
e 17 13
e 17 18
e 17 21
e 17 30
e 18 4
e 18 12
e 18 16
e 18 21
e 18 27
e 19 2
e 19 2
e 19 16
e 19 20
e 19 26
e 20 16
e 20 19
e 20 19
e 20 29
e 20 29
e 21 18
e 21 19
e 21 28
e 21 30
e 21 30
e 22 13
e 22 13
e 22 17
e 22 23
e 22 24
e 23 4
e 23 15
e 23 26
e 23 28
e 23 30
e 24 7
e 24 11
e 24 13
e 24 15
e 24 26
e 25 2
e 25 3
e 25 9
e 25 15
e 25 22
e 26 6
e 26 11
e 26 12
e 26 21
e 26 23
e 27 2
e 27 11
e 27 16
e 27 19
e 27 21
e 28 3
e 28 10
e 28 13
e 28 18
e 28 22
e 29 11
e 29 17
e 29 17
e 29 19
e 29 20
e 30 17
e 30 26
e 30 26
e 30 26
e 30 27
